9
0 37 82 96 81 68 56 88 7
37 0 77 34 53 44 22 65 27
82 77 0 16 64 36 46 72 41
96 34 16 0 30 40 36 84 53
81 53 64 30 0 56 20 36 51
68 44 36 40 56 0 62 89 28
56 22 46 36 20 62 0 30 23
88 65 72 84 36 89 30 0 67
7 27 41 53 51 28 23 67 0
